(set-logic HORN)
(declare-fun state (Int (Array Int Int) (Array Int Int) (Array Int Int) (Array Int Int) Int Int (Array Int Int) (Array Int Int) Int Int Int Int Int Int Int Int Int Int Int Int Int Int Int Int Int Int Int Int Int Int Bool Bool Bool Bool (Array Int Int)) Bool)
(assert (forall ((|A_9| Int) (|G1_5| (Array Int Int)) (|C_9| (Array Int Int)) (|D_9| (Array Int Int)) (|E_9| (Array Int Int)) (|F_9| Int) (|G_9| Int) (|H_9| (Array Int Int)) (|I_9| (Array Int Int)) (|J_9| Int) (|K_9| Int) (|L_9| Int) (|H1_4| Int) (|I1_1| Int) (|O_9| Int) (|P_9| Int) (|Q_9| Int) (|R_9| Int) (|S_9| Int) (|T_9| Int) (|U_9| Int) (|V_9| Int) (|W_9| Int) (|X_9| Int) (|J1_0| Int) (|Z_9| Int) (|K1_0| Int) (|B1_9| Int) (|L1_0| Int) (|D1_9| Int) (|E1_9| Int) (|F1_9| Bool) (|.loc.4| Bool) (|.loc.5| Bool) (|.loc.6| Bool) (|G1_0| (Array Int Int)) (|.x.408| Bool) (|.x.387| Int) (|.x.385| (Array Int Int)) (|.x.383| Int) (|.x.381| (Array Int Int)) (|.x.377| Int) (|.x.379| (Array Int Int)) (|.x.378| (Array Int Int)) (|.x.403| Int) (|.x.400| Int) (|.loc.7| Bool) (|.x.405| Int) (|.x.401| Int) (|.x.390| Int) (|.x.389| Int) (|.x.396| Int) (|.x.380| (Array Int Int)) (|.x.399| Int) (|.x.406| Int) (|.loc.9| Bool) (|.loc.8| Bool) (|.x.402| Int) (|.x.391| Int) (|.x.395| Int) (|.x.407| Int) (|.x.404| Int) (|.x.398| Int) (|.x.397| Int) (|.x.394| Int) (|.x.393| Int) (|.x.392| Int) (|.x.388| Int) (|.x.386| Int) (|.x.382| Int) (|.x.384| (Array Int Int)) (|.xtv.1| (Array Int Int))) (=> (and (and (and (not .loc.5) (not .loc.4)) (not .loc.6)) (and (and (and (and (and (= D_9 E_9) (not F1_9)) (= F_9 G_9)) (= J_9 K_9)) (= H_9 I_9)) (= G1_5 C_9))) (state |A_9| |G1_5| |C_9| |D_9| |E_9| |F_9| |G_9| |H_9| |I_9| |J_9| |K_9| |L_9| |H1_4| |I1_1| |O_9| |P_9| |Q_9| |R_9| |S_9| |T_9| |U_9| |V_9| |W_9| |X_9| |J1_0| |Z_9| |K1_0| |B1_9| |L1_0| |D1_9| |E1_9| |F1_9| |.loc.4| |.loc.5| |.loc.6| |G1_0|))))
(assert (forall ((|A_9| Int) (|G1_5| (Array Int Int)) (|C_9| (Array Int Int)) (|D_9| (Array Int Int)) (|E_9| (Array Int Int)) (|F_9| Int) (|G_9| Int) (|H_9| (Array Int Int)) (|I_9| (Array Int Int)) (|J_9| Int) (|K_9| Int) (|L_9| Int) (|H1_4| Int) (|I1_1| Int) (|O_9| Int) (|P_9| Int) (|Q_9| Int) (|R_9| Int) (|S_9| Int) (|T_9| Int) (|U_9| Int) (|V_9| Int) (|W_9| Int) (|X_9| Int) (|J1_0| Int) (|Z_9| Int) (|K1_0| Int) (|B1_9| Int) (|L1_0| Int) (|D1_9| Int) (|E1_9| Int) (|F1_9| Bool) (|.loc.4| Bool) (|.loc.5| Bool) (|.loc.6| Bool) (|G1_0| (Array Int Int)) (|.x.408| Bool) (|.x.387| Int) (|.x.385| (Array Int Int)) (|.x.383| Int) (|.x.381| (Array Int Int)) (|.x.377| Int) (|.x.379| (Array Int Int)) (|.x.378| (Array Int Int)) (|.x.403| Int) (|.x.400| Int) (|.loc.7| Bool) (|.x.405| Int) (|.x.401| Int) (|.x.390| Int) (|.x.389| Int) (|.x.396| Int) (|.x.380| (Array Int Int)) (|.x.399| Int) (|.x.406| Int) (|.loc.9| Bool) (|.loc.8| Bool) (|.x.402| Int) (|.x.391| Int) (|.x.395| Int) (|.x.407| Int) (|.x.404| Int) (|.x.398| Int) (|.x.397| Int) (|.x.394| Int) (|.x.393| Int) (|.x.392| Int) (|.x.388| Int) (|.x.386| Int) (|.x.382| Int) (|.x.384| (Array Int Int)) (|.xtv.1| (Array Int Int))) (=> (and (state |A_9| |G1_5| |C_9| |D_9| |E_9| |F_9| |G_9| |H_9| |I_9| |J_9| |K_9| |L_9| |H1_4| |I1_1| |O_9| |P_9| |Q_9| |R_9| |S_9| |T_9| |U_9| |V_9| |W_9| |X_9| |J1_0| |Z_9| |K1_0| |B1_9| |L1_0| |D1_9| |E1_9| |F1_9| |.loc.4| |.loc.5| |.loc.6| |G1_0|) (let ((.def_46 (not .loc.5))) (let ((.def_47 (not .loc.4))) (let ((.def_49 (not .loc.6))) (let ((.def_103 (not .loc.7))) (let ((.def_107 (= L1_0 .x.405))) (let ((.def_109 (= K1_0 .x.403))) (let ((.def_112 (= J1_0 .x.401))) (let ((.def_114 (= X_9 .x.400))) (let ((.def_117 (= I1_1 .x.390))) (let ((.def_120 (= H1_4 .x.389))) (let ((.def_122 (= G1_5 .x.378))) (let ((.def_126 (<= 100000 W_9))) (let ((.def_128 (and .loc.4 .loc.5))) (let ((.def_141 (= T_9 .x.396))) (let ((.def_143 (= D_9 .x.380))) (let ((.def_144 (and .def_141 .def_143))) (let ((.def_146 (= W_9 .x.399))) (let ((.def_149 (= D1_9 .x.406))) (let ((.def_150 (and (and .def_144 .def_146) .def_149))) (let ((.def_154 (not .loc.8))) (let ((.def_188 (not .loc.9))) (let ((.def_229 (<= 100000 Z_9))) (let ((.def_364 (store G1_0 .x.390 1))) (and (and (= F1_9 .x.408) (and (= K_9 .x.387) (and (= I_9 .x.385) (and (= G_9 .x.383) (and (= E_9 .x.381) (and (= A_9 .x.377) (= C_9 .x.379))))))) (or (and (or (and (or (or (or (or (and (or (or (and (and .def_46 (and .def_47 (and .loc.6 (and (or F1_9 (and (= (store (store G1_5 I1_1 0) L1_0 0) .x.378) (= .x.403 0))) (or .x.408 (= .x.403 .x.400)))))) .loc.7) (and (and (and (and (and (and (and (and .def_49 (and (and .loc.5 (and F1_9 .loc.4)) .def_103)) .def_107) .def_109) .def_112) .def_114) .def_117) .def_120) .def_122)) (and (or F1_9 .def_126) (and .def_122 (and .def_120 (and .def_117 (and .def_114 (and .def_112 (and .def_109 (and .def_107 (and .def_49 (and .def_103 .def_128))))))))))) (and (and .def_150 .loc.9) .def_154)) (and (or F1_9 (and (= .x.380 (store D_9 I1_1 (store (select D_9 I1_1) (+ (* 4 W_9) J1_0) (+ (select (select D_9 L1_0) (+ H1_4 (* 4 W_9))) (- 1))))) (not .def_126))) (and (or .x.408 (= (+ W_9 (* (- 1) .x.399)) (- 1))) (and (and .def_122 (and .def_120 (and .def_117 (and .def_114 (and .def_112 (and .def_109 (and .def_107 (and .def_49 (and .loc.8 (and .loc.7 .def_128)))))))))) .def_188)))) (and (or F1_9 (= .x.399 0)) (and .def_188 (and .def_122 (and .def_120 (and .def_117 (and .def_114 (and .def_112 (and .def_109 (and .def_107 (and .def_49 (and .loc.8 (and .loc.7 (and .def_47 (and .loc.5 (and .def_144 .def_149)))))))))))))))) (and .def_188 (and .def_122 (and .def_120 (and .def_117 (and .def_114 (and .def_112 (and .def_109 (and .def_107 (and .def_49 (and .def_103 (and .loc.8 (and .def_46 (and .loc.4 (and .def_149 (and .def_146 (and .def_141 (and F1_9 .def_143)))))))))))))))))) (and (or F1_9 .def_229) (and .def_188 (and .def_122 (and .def_120 (and .def_117 (and .def_114 (and .def_112 (and .def_109 (and .def_107 (and .def_49 (and .def_103 (and .loc.8 (and .def_46 (and .loc.4 .def_150))))))))))))))) (and (= Z_9 .x.402) (and (= O_9 .x.391) (= S_9 .x.395)))) (and (or F1_9 (and (= .x.380 (store D_9 U_9 (store (select D_9 U_9) (+ Q_9 (* 4 Z_9)) (+ (select (select D_9 P_9) (+ L_9 (* 4 Z_9))) 1)))) (not .def_229))) (and (or .x.408 (= (+ Z_9 (* (- 1) .x.402)) (- 1))) (and .def_188 (and .def_122 (and .def_120 (and .def_117 (and .def_114 (and .def_112 (and .def_109 (and .def_107 (and .def_49 (and .def_154 (and .loc.7 (and .def_46 (and .loc.4 (and .def_149 (and .def_141 .def_146)))))))))))))))))) (and (= E1_9 .x.407) (and (= B1_9 .x.404) (and (= V_9 .x.398) (and (= U_9 .x.397) (and (= R_9 .x.394) (and (= Q_9 .x.393) (and (= P_9 .x.392) (and (= L_9 .x.388) (and (= J_9 .x.386) (and (= F_9 .x.382) (= H_9 .x.384)))))))))))) (and (or F1_9 (and (and (= .x.386 0) (= .x.382 0)) (= G1_0 (store G1_5 0 0)))) (and (or .x.408 (and (and (and (and (and (and (and (and (and (and (and (and (and (and (and (and (and (and (not (<= .x.377 .x.405)) (not (<= .x.377 .x.390))) (= .x.404 .x.388)) (not (= .x.390 0))) (= .x.394 .x.392)) (= .x.407 .x.393)) (= .x.390 .x.394)) (= .x.405 .x.398)) (= .x.389 .x.407)) (= .x.401 .x.404)) (= .x.401 0)) (= .x.402 0)) (= .x.398 .x.397)) (= .x.389 0)) (not (= .x.405 0))) (= (select .def_364 .x.405) 0)) (= (select G1_0 .x.390) 0)) (= .x.384 (store (store H_9 .x.390 400000) .x.405 400000))) (= .x.378 (store .def_364 .x.405 1)))) (and .def_188 (and .def_114 (and .def_49 (and .def_154 (and .loc.7 (and .def_46 (and .def_47 .def_143))))))))))))))))))))))))))))))))))) (state |.x.377| |.x.378| |.x.379| |.x.380| |.x.381| |.x.382| |.x.383| |.x.384| |.x.385| |.x.386| |.x.387| |.x.388| |.x.389| |.x.390| |.x.391| |.x.392| |.x.393| |.x.394| |.x.395| |.x.396| |.x.397| |.x.398| |.x.399| |.x.400| |.x.401| |.x.402| |.x.403| |.x.404| |.x.405| |.x.406| |.x.407| |.x.408| |.loc.7| |.loc.8| |.loc.9| |.xtv.1|))))
(assert (forall ((|A_9| Int) (|G1_5| (Array Int Int)) (|C_9| (Array Int Int)) (|D_9| (Array Int Int)) (|E_9| (Array Int Int)) (|F_9| Int) (|G_9| Int) (|H_9| (Array Int Int)) (|I_9| (Array Int Int)) (|J_9| Int) (|K_9| Int) (|L_9| Int) (|H1_4| Int) (|I1_1| Int) (|O_9| Int) (|P_9| Int) (|Q_9| Int) (|R_9| Int) (|S_9| Int) (|T_9| Int) (|U_9| Int) (|V_9| Int) (|W_9| Int) (|X_9| Int) (|J1_0| Int) (|Z_9| Int) (|K1_0| Int) (|B1_9| Int) (|L1_0| Int) (|D1_9| Int) (|E1_9| Int) (|F1_9| Bool) (|.loc.4| Bool) (|.loc.5| Bool) (|.loc.6| Bool) (|G1_0| (Array Int Int)) (|.x.408| Bool) (|.x.387| Int) (|.x.385| (Array Int Int)) (|.x.383| Int) (|.x.381| (Array Int Int)) (|.x.377| Int) (|.x.379| (Array Int Int)) (|.x.378| (Array Int Int)) (|.x.403| Int) (|.x.400| Int) (|.loc.7| Bool) (|.x.405| Int) (|.x.401| Int) (|.x.390| Int) (|.x.389| Int) (|.x.396| Int) (|.x.380| (Array Int Int)) (|.x.399| Int) (|.x.406| Int) (|.loc.9| Bool) (|.loc.8| Bool) (|.x.402| Int) (|.x.391| Int) (|.x.395| Int) (|.x.407| Int) (|.x.404| Int) (|.x.398| Int) (|.x.397| Int) (|.x.394| Int) (|.x.393| Int) (|.x.392| Int) (|.x.388| Int) (|.x.386| Int) (|.x.382| Int) (|.x.384| (Array Int Int)) (|.xtv.1| (Array Int Int))) (=> (state |A_9| |G1_5| |C_9| |D_9| |E_9| |F_9| |G_9| |H_9| |I_9| |J_9| |K_9| |L_9| |H1_4| |I1_1| |O_9| |P_9| |Q_9| |R_9| |S_9| |T_9| |U_9| |V_9| |W_9| |X_9| |J1_0| |Z_9| |K1_0| |B1_9| |L1_0| |D1_9| |E1_9| |F1_9| |.loc.4| |.loc.5| |.loc.6| |G1_0|) (not (and F1_9 (and .loc.6 (and .loc.4 (not .loc.5))))))))
(check-sat)
